p cnf 24 57
a 17 19 0
e 1 2 3 4 5 6 7 8 9 10 11 12 13 14 15 16 18 20 21 22 23 24 0
2 -1 0
2 1 0
-5 -3 0
-5 4 0
3 -4 5 0
-7 -6 0
-7 -6 0
6 7 0
-8 7 0
-8 -7 0
7 1 -9 0
-7 -1 -9 0
7 -1 9 0
-7 1 9 0
8 -9 -10 0
-8 9 -10 0
8 9 10 0
-8 -9 10 0
13 11 0
13 12 0
-11 -12 -13 0
-3 14 -15 0
3 -14 -15 0
-3 -14 15 0
3 14 15 0
16 13 0
16 15 0
-13 -15 -16 0
-17 -10 0
-17 16 0
10 -16 17 0
18 5 0
18 17 0
-5 -17 -18 0
19 2 0
19 18 0
-2 -18 -19 0
-7 20 -21 0
7 -20 -21 0
-7 -20 21 0
7 20 21 0
22 6 0
22 -11 0
-6 11 -22 0
-21 -22 -23 0
21 22 -23 0
-21 22 23 0
21 -22 23 0
24 19 0
24 23 0
-19 -23 -24 0
7 -9 -12 4 23 0
-18 23 -12 11 -7 0
13 -10 3 0
4 15 -23 8 21 -16 0
-20 -4 -23 14 0
24 0
